p cnf 28 75
a 19 7 0
e 1 2 3 4 5 6 8 9 10 11 12 13 14 15 16 17 18 20 21 22 23 24 25 26 27 28 0
2 3 -4 0
-2 -3 -4 0
2 -3 4 0
-2 3 4 0
-5 1 0
-5 4 0
-1 -4 5 0
-7 -2 -8 0
7 2 -8 0
-7 2 8 0
7 -2 8 0
6 -8 -9 0
-6 8 -9 0
6 8 9 0
-6 -8 9 0
-10 -9 0
-10 6 0
9 -6 10 0
5 -10 -11 0
-5 10 -11 0
5 10 11 0
-5 -10 11 0
-12 -2 0
-12 -1 0
2 1 12 0
14 -2 0
14 -13 0
2 13 -14 0
15 -2 0
15 2 0
16 14 0
16 -15 0
-14 15 -16 0
-12 16 -17 0
12 -16 -17 0
-12 -16 17 0
12 16 17 0
18 -7 0
18 3 0
7 -3 -18 0
19 2 -20 0
-19 -2 -20 0
19 -2 20 0
-19 2 20 0
-14 -3 -21 0
14 3 -21 0
-14 3 21 0
14 -3 21 0
-22 -13 -23 0
22 13 -23 0
-22 13 23 0
22 -13 23 0
-24 21 0
-24 -23 0
-21 23 24 0
25 20 0
25 24 0
-20 -24 -25 0
26 18 0
26 25 0
-18 -25 -26 0
27 17 0
27 -26 0
-17 26 -27 0
-28 -11 0
-28 -27 0
11 27 28 0
14 3 -2 -19 -9 0
-13 -5 -22 24 0
25 2 11 -24 -10 13 22 0
-15 6 19 -13 12 0
-12 18 13 0
-7 4 27 -20 -5 0
16 14 -8 -2 -27 17 1 26 0
28 0
